Cost: 1560
0-3-38-29-28-27-20-13-21-22-23-24-25-26-30-32-0
0-2-4-5-7-6-0
0-15-8-9-10-12-11-16-14-17-18-19-1-0
Cost: 1560
0-3-38-29-28-27-20-13-21-22-23-24-25-26-30-32-0
0-2-4-5-7-6-0
0-15-8-9-10-12-11-16-14-17-18-19-1-0
Cost: 1560
0-3-38-29-28-27-20-13-21-22-23-24-25-26-30-32-0
0-2-4-5-7-6-0
0-15-8-9-10-12-11-16-14-17-18-19-1-0
Cost: 1560
0-3-38-29-28-27-20-13-21-22-23-24-25-26-30-32-0
0-2-4-5-7-6-0
0-15-8-9-10-12-11-16-14-17-18-19-1-0
Cost: 1560
0-3-38-29-28-27-20-13-21-22-23-24-25-26-30-32-0
0-2-4-5-7-6-0
0-15-8-9-10-12-11-16-14-17-18-19-1-0
Cost: 1560
0-3-38-29-28-27-20-13-21-22-23-24-25-26-30-32-0
0-2-4-5-7-6-0
0-15-8-9-10-12-11-16-14-17-18-19-1-0
Cost: 1560
0-3-38-29-28-27-20-13-21-22-23-24-25-26-30-32-0
0-2-4-5-7-6-0
0-15-8-9-10-12-11-16-14-17-18-19-1-0
Cost: 1560
0-3-38-29-28-27-20-13-21-22-23-24-25-26-30-32-0
0-2-4-5-7-6-0
0-15-8-9-10-12-11-16-14-17-18-19-1-0
Cost: 1560
0-3-38-29-28-27-20-13-21-22-23-24-25-26-30-32-0
0-2-4-5-7-6-0
0-15-8-9-10-12-11-16-14-17-18-19-1-0
Cost: 1560
0-3-38-29-28-27-20-13-21-22-23-24-25-26-30-32-0
0-2-4-5-7-6-0
0-15-8-9-10-12-11-16-14-17-18-19-1-0
Cost: 1560
0-3-38-29-28-27-20-13-21-22-23-24-25-26-30-32-0
0-2-4-5-7-6-0
0-15-8-9-10-12-11-16-14-17-18-19-1-0
Cost: 1560
0-2-4-5-7-6-0
0-3-38-29-28-27-20-13-21-22-23-24-25-26-30-32-0
0-15-8-9-10-12-11-16-14-17-18-19-1-0
Cost: 1560
0-2-4-5-7-6-0
0-3-38-29-28-27-20-13-21-22-23-24-25-26-30-32-0
0-15-8-9-10-12-11-16-14-17-18-19-1-0
Cost: 1560
0-2-4-5-7-6-0
0-3-38-29-28-27-20-13-21-22-23-24-25-26-30-32-0
0-15-8-9-10-12-11-16-14-17-18-19-1-0
Cost: 1560
0-2-4-5-7-6-0
0-3-38-29-28-27-20-13-21-22-23-24-25-26-30-32-0
0-15-8-9-10-12-11-16-14-17-18-19-1-0
Cost: 1560
0-2-4-5-7-6-0
0-3-38-29-28-27-20-13-21-22-23-24-25-26-30-32-0
0-15-8-9-10-12-11-16-14-17-18-19-1-0
Cost: 1560
0-2-4-5-7-6-0
0-3-38-29-28-27-20-13-21-22-23-24-25-26-30-32-0
0-15-8-9-10-12-11-16-14-17-18-19-1-0
Cost: 1560
0-2-4-5-7-6-0
0-3-38-29-28-27-20-13-21-22-23-24-25-26-30-32-0
0-15-8-9-10-12-11-16-14-17-18-19-1-0
Cost: 1560
0-2-4-5-7-6-0
0-3-38-29-28-27-20-13-21-22-23-24-25-26-30-32-0
0-15-8-9-10-12-11-16-14-17-18-19-1-0
Cost: 1560
0-2-4-5-7-6-0
0-3-38-29-28-27-20-13-21-22-23-24-25-26-30-32-0
0-15-8-9-10-12-11-16-14-17-18-19-1-0
Cost: 1560
0-2-4-5-7-6-0
0-3-38-29-28-27-20-13-21-22-23-24-25-26-30-32-0
0-15-8-9-10-12-11-16-14-17-18-19-1-0
Cost: 1560
0-2-4-5-7-6-0
0-3-38-29-28-27-20-13-21-22-23-24-25-26-30-32-0
0-15-8-9-10-12-11-16-14-17-18-19-1-0
Cost: 1560
0-2-4-5-7-6-0
0-3-38-29-28-27-20-13-21-22-23-24-25-26-30-32-0
0-15-8-9-10-12-11-16-14-17-18-19-1-0
Cost: 1560
0-2-4-5-7-6-0
0-3-38-29-28-27-20-13-21-22-23-24-25-26-30-32-0
0-15-8-9-10-12-11-16-14-17-18-19-1-0
Cost: 1560
0-2-4-5-7-6-0
0-3-38-29-28-27-20-13-21-22-23-24-25-26-30-32-0
0-15-8-9-10-12-11-16-14-17-18-19-1-0
Cost: 1560
0-2-3-29-28-27-20-13-21-22-23-24-25-26-30-32-0
0-15-8-9-10-12-11-16-14-17-18-19-1-0
0-4-5-7-6-35-0
Cost: 1560
0-2-4-5-7-6-0
0-3-38-29-28-27-20-13-21-22-23-24-25-26-30-32-0
0-15-8-9-10-12-11-16-14-17-18-19-1-0
Cost: 1560
0-2-4-5-7-6-0
0-3-38-29-28-27-20-13-21-22-23-24-25-26-30-32-0
0-15-8-9-10-12-11-16-14-17-18-19-1-0
Cost: 1560
0-2-4-5-7-6-0
0-3-38-29-28-27-20-13-21-22-23-24-25-26-30-32-0
0-15-8-9-10-12-11-16-14-17-18-19-1-0
Cost: 1560
0-2-4-5-7-6-0
0-3-38-29-28-27-20-13-21-22-23-24-25-26-30-32-0
0-15-8-9-10-12-11-16-14-17-18-19-1-0
Cost: 1560
0-2-4-5-7-6-0
0-3-38-29-28-27-20-13-21-22-23-24-25-26-30-32-0
0-15-8-9-10-12-11-16-14-17-18-19-1-0
Cost: 1560
0-15-8-9-10-12-11-16-14-17-18-19-1-0
0-2-4-5-7-6-35-0
0-3-29-28-27-20-13-21-22-23-24-25-26-30-32-0
Cost: 1560
0-3-29-28-27-20-13-21-22-23-24-25-26-30-32-0
0-15-8-9-10-12-11-16-14-17-18-19-1-0
0-2-4-5-7-6-35-0
Cost: 1560
0-15-8-9-10-12-11-16-14-17-18-19-1-0
0-3-29-28-27-20-13-21-22-23-24-25-26-30-32-0
0-2-4-5-7-6-35-0
Cost: 1560
0-3-38-29-28-27-20-13-21-22-23-24-25-26-30-32-0
0-15-8-9-10-12-11-16-14-17-18-19-1-0
0-2-4-5-7-6-0
